W=7;
H=5;

MAX_TIME=25;
MAX_TRACKS=10;

TARGET=(3,7);

TRAINS=[(3,2,LEFT)];
DECOYS=[];

INIT_POS=[
(1,6,STRAIGHT_RL),
(3,2,STRAIGHT_RL),
(3,5,STRAIGHT_RL),
(3,6,STRAIGHT_RL),
(3,7,STRAIGHT_RL),
(5,3,STRAIGHT_RL),
];
TUNNEL_PAIRS=[
  (1, 4, RIGHT, 5, 2, RIGHT),
  (1, 2, DOWN, 5, 4, LEFT),
];

GATES=[
(3,5,2,true),
(3,6,1,false),
];
ACTIVATIONS=[
(1,6,1),
(5,3,2),
];

DSWITCHES=[];

STATIONS=[];

SEMAPHORE_SUPPLY=0;
